32	4
16	12	17	17
0	0	0	0	0	8	2	13	26	27	28	29	30	31
2	16	12	17	12	2	3	25
10	8	1	9	17	1	4
3	15	12	17	17	2	5	24
10	16	10	13	17	3	6	22	23
8	13	12	8	12	1	7
4	15	6	8	8	2	8	21
9	16	4	16	16	3	9	19	20
10	6	12	1	6	1	10
5	11	10	2	11	2	11	18
8	13	2	17	3	1	12
4	16	7	17	17	1	14
6	14	9	12	16	2	16	18
8	14	8	4	8	1	15
10	12	6	17	10	1	16
4	16	6	17	17	1	17
10	11	12	17	17	1	32
10	4	12	17	16	1	32
5	16	12	17	16	1	32
5	10	12	17	17	1	32
4	13	12	9	14	1	32
10	1	11	17	17	1	32
10	13	9	17	17	1	32
6	9	8	7	17	1	32
10	16	8	5	17	1	32
2	16	4	11	8	1	32
3	3	9	15	14	1	32
4	8	11	17	15	1	32
3	16	9	13	4	1	32
1	16	12	13	6	1	32
2	7	12	16	1	1	32
0	0	0	0	0	0
